(set-logic ALL)
(set-option :produce-models true)
(declare-sort BoundSet 0)
(declare-sort UnboundSet 0)
(declare-fun IsEatenAt (BoundSet BoundSet) Bool)
(assert (not (=> (exists ((a BoundSet)) (exists ((b BoundSet)) (IsEatenAt a b))) (exists ((c BoundSet)) (exists ((d BoundSet)) (IsEatenAt c d))))))
(check-sat)
(get-model)